2298.0 32842.0 
2260.0 33150.0 
2209.0 33696.0 
2214.0 33637.0 
2254.0 33387.0 
2254.0 33387.0 
2362.0 32770.0 
2234.0 33418.0 
2226.0 33448.0 
2335.0 32784.0 
2327.0 32789.0 
2294.0 32916.0 
2273.0 33010.0 
2381.0 32685.0 
2390.0 32655.0 
2281.0 32999.0 
